Test: fpga10_8_sat.cnf
Options: -no-inverting-opt -sym-var-bump
WARNING: for repeatability, setting FPU to use double precision
============================[ Problem Statistics ]=============================
|                                                                             |
|  Number of symmetries:           22                                         |
|  Number of invertingSyms:         0                                         |
|  Number of variables:           120                                         |
|  Number of clauses:             448                                         |
|  Parse time:                   0.00 s                                       |
|                                                                             |
============================[ Search Statistics ]==============================
| Conflicts |          ORIGINAL         |          LEARNT          | Progress |
|           |    Vars  Clauses Literals |    Limit  Clauses Lit/Cl |          |
===============================================================================
===============================================================================
restarts              : 1
conflicts             : 21             (inf /sec)
symconflicts          : 3              (inf /sec)
decisions             : 95             (0.00 % random) (inf /sec)
propagations          : 496            (inf /sec)
sympropagations       : 18             (inf /sec)
conflict literals     : 603            (0.82 % deleted)
literals     : 603            (0.82 % deleted)

HEURISTIC USAGES
random                : 0           
activity w/ lookahead : 0           
activity no lookahead : 0           
original sp           : 94          
sym count             : 0           

Memory used           : 5.00 MB
CPU time              : 0 s

SATISFIABLE
